244 5
10 10 10 10 10 

0 0 0 0 0 0 5 2 14 26 38 50 
0 0 0 0 0 0 2 3 4 
5 0 0 3 0 0 2 6 5 
9 0 0 8 0 0 1 5 
4 0 0 6 0 0 1 7 
3 0 0 10 0 0 1 7 
9 0 0 7 0 0 2 8 178 
9 0 0 8 0 0 1 9 
6 0 0 9 0 0 2 12 10 
1 0 0 8 0 0 1 11 
8 0 0 10 0 0 1 13 
1 0 0 6 0 0 1 13 
0 0 0 0 0 0 1 62 
0 0 0 0 0 0 1 15 
5 0 0 0 0 2 2 22 16 
8 0 0 0 0 10 2 19 17 
6 0 0 0 0 6 2 20 18 
1 0 0 0 0 9 2 21 104 
7 0 0 0 0 10 1 20 
8 0 0 0 0 7 1 23 
7 0 0 0 0 8 1 23 
8 0 0 0 0 10 1 23 
2 0 0 0 0 3 1 24 
8 0 0 0 0 10 1 25 
0 0 0 0 0 0 1 62 
0 0 0 0 0 0 1 27 
1 0 3 0 0 0 3 29 28 149 
6 0 10 0 0 0 2 36 30 
3 0 6 0 0 0 2 36 30 
2 0 7 0 0 0 1 31 
8 0 10 0 0 0 1 32 
4 0 8 0 0 0 1 33 
5 0 7 0 0 0 2 35 34 
5 0 4 0 0 0 1 37 
6 0 10 0 0 0 1 37 
8 0 10 0 0 0 1 37 
0 0 0 0 0 0 1 62 
0 0 0 0 0 0 2 39 40 
8 2 0 0 0 0 2 44 41 
10 6 0 0 0 0 2 44 43 
4 10 0 0 0 0 1 42 
4 6 0 0 0 0 1 43 
9 5 0 0 0 0 3 48 45 79 
2 10 0 0 0 0 2 48 46 
1 9 0 0 0 0 1 46 
4 8 0 0 0 0 1 47 
6 10 0 0 0 0 1 49 
3 9 0 0 0 0 1 49 
0 0 0 0 0 0 1 62 
0 0 0 0 0 0 1 51 
6 0 2 0 0 0 1 52 
4 0 10 0 0 0 2 56 53 
3 0 9 0 0 0 2 58 54 
8 0 9 0 0 0 2 60 55 
5 0 10 0 0 0 1 57 
2 0 10 0 0 0 1 57 
5 0 10 0 0 0 1 59 
9 0 7 0 0 0 1 59 
5 0 5 0 0 0 2 61 216 
1 0 3 0 0 0 1 61 
0 0 0 0 0 0 1 62 
0 0 0 0 0 0 5 63 75 87 99 111 
0 0 0 0 0 0 3 64 67 70 
2 0 2 0 0 0 1 65 
10 0 6 0 0 0 2 73 66 
7 0 10 0 0 0 1 68 
6 0 10 0 0 0 1 68 
9 0 10 0 0 0 1 69 
5 0 10 0 0 0 1 71 
4 0 6 0 0 0 1 71 
5 0 8 0 0 0 1 72 
1 0 10 0 0 0 2 74 114 
1 0 3 0 0 0 1 74 
0 0 0 0 0 0 1 123 
0 0 0 0 0 0 3 76 78 215 
7 0 0 0 5 0 1 77 
6 0 0 0 10 0 2 84 80 
8 0 0 0 7 0 1 79 
1 0 0 0 6 0 2 84 81 
9 0 0 0 10 0 1 81 
3 0 0 0 10 0 1 82 
1 0 0 0 3 0 1 83 
4 0 0 0 6 0 1 85 
6 0 0 0 8 0 1 85 
5 0 0 0 10 0 1 86 
0 0 0 0 0 0 1 123 
0 0 0 0 0 0 2 88 89 
8 0 0 0 0 6 2 96 90 
4 0 0 0 0 5 1 90 
8 0 0 0 0 9 2 94 91 
8 0 0 0 0 10 2 92 173 
4 0 0 0 0 10 1 93 
2 0 0 0 0 5 1 95 
6 0 0 0 0 8 1 95 
3 0 0 0 0 8 1 97 
2 0 0 0 0 8 1 97 
7 0 0 0 0 6 1 98 
0 0 0 0 0 0 1 123 
0 0 0 0 0 0 1 100 
1 0 0 0 4 0 1 101 
7 0 0 0 4 0 1 102 
6 0 0 0 6 0 2 105 103 
7 0 0 0 10 0 2 104 156 
5 0 0 0 7 0 2 107 106 
5 0 0 0 9 0 2 107 106 
8 0 0 0 9 0 2 109 108 
9 0 0 0 10 0 2 109 108 
4 0 0 0 6 0 1 110 
2 0 0 0 10 0 1 110 
0 0 0 0 0 0 1 123 
0 0 0 0 0 0 2 112 115 
2 0 0 4 0 0 1 113 
10 0 0 8 0 0 1 114 
4 0 0 9 0 0 2 117 116 
5 0 0 9 0 0 2 119 117 
10 0 0 6 0 0 2 119 118 
6 0 0 10 0 0 2 118 210 
4 0 0 7 0 0 1 120 
4 0 0 8 0 0 1 120 
1 0 0 9 0 0 1 121 
1 0 0 5 0 0 1 122 
0 0 0 0 0 0 1 123 
0 0 0 0 0 0 5 124 136 148 160 172 
0 0 0 0 0 0 1 125 
9 0 0 3 0 0 1 126 
1 0 0 9 0 0 1 127 
4 0 0 6 0 0 3 132 130 128 
8 0 0 10 0 0 1 129 
8 0 0 5 0 0 2 134 131 
8 0 0 9 0 0 1 131 
10 0 0 7 0 0 1 133 
8 0 0 7 0 0 2 134 155 
3 0 0 10 0 0 1 135 
10 0 0 9 0 0 1 135 
0 0 0 0 0 0 1 184 
0 0 0 0 0 0 1 137 
1 0 0 3 0 0 2 143 138 
4 0 0 10 0 0 2 146 139 
2 0 0 8 0 0 1 140 
9 0 0 7 0 0 1 141 
1 0 0 7 0 0 2 142 176 
3 0 0 4 0 0 2 145 144 
9 0 0 7 0 0 2 145 144 
3 0 0 10 0 0 1 147 
6 0 0 9 0 0 1 147 
1 0 0 10 0 0 1 147 
0 0 0 0 0 0 1 184 
0 0 0 0 0 0 3 149 154 155 
6 0 3 0 0 0 2 150 182 
2 0 8 0 0 0 1 151 
7 0 6 0 0 0 1 152 
9 0 10 0 0 0 1 153 
7 0 7 0 0 0 2 158 156 
1 0 9 0 0 0 1 156 
6 0 4 0 0 0 1 156 
9 0 8 0 0 0 1 157 
5 0 10 0 0 0 1 159 
5 0 10 0 0 0 1 159 
0 0 0 0 0 0 1 184 
0 0 0 0 0 0 2 161 164 
1 0 2 0 0 0 1 162 
3 0 3 0 0 0 2 170 163 
4 0 9 0 0 0 2 169 165 
2 0 9 0 0 0 2 169 166 
2 0 10 0 0 0 1 166 
7 0 9 0 0 0 1 167 
7 0 7 0 0 0 1 168 
1 0 10 0 0 0 1 171 
3 0 7 0 0 0 1 171 
6 0 9 0 0 0 1 171 
0 0 0 0 0 0 1 184 
0 0 0 0 0 0 4 173 174 176 177 
9 0 4 0 0 0 1 175 
9 0 7 0 0 0 1 175 
3 0 8 0 0 0 1 178 
5 0 10 0 0 0 1 178 
1 0 7 0 0 0 1 178 
4 0 5 0 0 0 1 179 
5 0 6 0 0 0 1 180 
10 0 9 0 0 0 1 181 
1 0 10 0 0 0 1 182 
1 0 9 0 0 0 1 183 
0 0 0 0 0 0 1 184 
0 0 0 0 0 0 4 185 197 209 221 
0 0 0 0 0 0 1 186 
3 2 0 0 0 0 1 187 
9 7 0 0 0 0 2 189 188 
6 8 0 0 0 0 2 191 190 
3 5 0 0 0 0 2 191 190 
8 7 0 0 0 0 2 194 192 
4 10 0 0 0 0 2 194 193 
1 10 0 0 0 0 1 193 
8 10 0 0 0 0 1 195 
10 7 0 0 0 0 1 195 
5 9 0 0 0 0 1 196 
0 0 0 0 0 0 1 233 
0 0 0 0 0 0 2 198 199 
8 4 0 0 0 0 2 207 200 
4 10 0 0 0 0 2 207 202 
10 4 0 0 0 0 1 201 
3 10 0 0 0 0 1 202 
4 8 0 0 0 0 2 206 203 
1 6 0 0 0 0 1 204 
8 10 0 0 0 0 1 205 
2 8 0 0 0 0 1 208 
1 7 0 0 0 0 1 208 
3 8 0 0 0 0 1 208 
0 0 0 0 0 0 1 233 
0 0 0 0 0 0 2 210 213 
5 0 2 0 0 0 2 216 211 
8 0 4 0 0 0 1 212 
6 0 10 0 0 0 2 218 214 
5 0 6 0 0 0 2 217 216 
3 0 10 0 0 0 1 215 
7 0 10 0 0 0 1 217 
10 0 10 0 0 0 1 218 
4 0 7 0 0 0 1 219 
6 0 6 0 0 0 1 219 
5 0 10 0 0 0 1 220 
0 0 0 0 0 0 1 233 
0 0 0 0 0 0 2 222 226 
2 0 5 0 0 0 2 229 223 
3 0 5 0 0 0 1 224 
9 0 6 0 0 0 1 225 
3 0 9 0 0 0 2 231 227 
8 0 7 0 0 0 2 229 228 
2 0 10 0 0 0 1 228 
8 0 5 0 0 0 1 230 
2 0 8 0 0 0 1 231 
2 0 10 0 0 0 1 232 
5 0 10 0 0 0 1 232 
0 0 0 0 0 0 1 233 
0 0 0 0 0 0 2 234 236 
8 0 0 4 0 0 1 235 
4 0 0 4 0 0 1 237 
5 0 0 9 0 0 3 243 240 239 
1 0 0 7 0 0 1 238 
1 0 0 10 0 0 2 243 239 
6 0 0 10 0 0 1 241 
10 0 0 6 0 0 1 241 
6 0 0 6 0 0 1 242 
3 0 0 10 0 0 1 244 
7 0 0 9 0 0 1 244 
0 0 0 0 0 0 0 
